Name:		mgval_0.40_3C
Optimal value:	-1
#Vehicles:	7
Capacity:	20
Depot Node:	1
#Nodes:		24
#Edges:		18
#Arcs:		25
#Required N:	13
#Required E:	10
#Required A:	15

ReN.	DEMAND	S. COST
N3	3	3
N4	6	6
N5	4	4
N7	3	3
N8	10	10
N9	3	3
N10	4	4
N11	5	5
N12	3	3
N15	5	5
N16	3	3
N18	2	2
N22	4	4

ReE.	FROM N.	TO N.	T. COST	DEMAND	S. COST
E9	6	7	3	5	5
E10	16	17	4	4	4
E11	13	17	3	5	5
E12	3	4	2	4	4
E13	9	10	2	2	2
E14	1	2	2	4	4
E15	14	18	3	6	6
E16	21	24	1	3	3
E17	5	10	2	4	4
E18	10	11	3	5	5

EDGE	FROM N.	TO N.	T. COST
NrE1	5	11	4
NrE2	9	19	1
NrE3	10	20	2
NrE4	15	21	1
NrE5	8	14	3
NrE6	1	3	1
NrE7	11	15	1
NrE8	22	23	3

ReA.	FROM N.	TO N.	T. COST	DEMAND	S. COST
A11	22	19	3	7	7
A12	9	3	1	1	1
A13	17	18	1	1	1
A14	6	12	1	1	1
A15	13	12	1	1	1
A16	19	20	1	2	2
A17	20	23	1	2	2
A18	23	24	1	5	5
A19	23	20	1	2	2
A20	21	20	2	4	4
A21	12	6	1	2	2
A22	13	14	2	4	4
A23	5	6	3	5	5
A24	2	4	1	1	1
A25	4	2	1	2	2

ARC	FROM N.	TO N.	T. COST
NrA1	12	13	1
NrA2	18	17	1
NrA3	8	7	1
NrA4	16	15	1
NrA5	16	12	1
NrA6	15	16	1
NrA7	7	8	1
NrA8	11	12	1
NrA9	12	11	1
NrA10	4	5	2
